p tw 70 105
1 2
1 59
1 67
2 13
2 42
13 24
13 50
24 35
24 27
35 46
35 10
46 57
46 36
57 68
57 61
68 69
68 44
69 70
69 21
70 3
70 29
3 4
3 12
4 5
4 49
5 6
5 37
6 7
6 25
7 8
7 43
8 9
8 31
9 10
9 19
10 11
11 12
11 54
12 14
14 15
14 41
15 16
15 33
16 17
16 26
17 18
17 60
18 19
18 48
19 20
20 21
20 39
21 22
22 23
22 67
23 25
23 53
25 26
26 27
27 28
28 29
28 64
29 30
30 31
30 58
31 32
32 33
32 51
33 34
34 36
34 66
36 37
37 38
38 39
38 56
39 40
40 41
40 63
41 42
42 43
43 44
44 45
45 47
45 55
47 48
47 65
48 49
49 50
50 51
51 52
52 53
52 62
53 54
54 55
55 56
56 58
58 59
59 60
60 61
61 62
62 63
63 64
64 65
65 66
66 67
